50
1 0 41
2 0 23
2 1 20
3 0 90
3 1 47
3 2 85
4 0 35
4 1 47
4 2 98
4 3 62
5 0 42
5 1 39
5 2 84
5 3 59
5 4 85
6 0 35
6 1 65
6 2 88
6 3 17
6 4 46
6 5 84
7 0 66
7 1 25
7 2 55
7 3 19
7 4 6
7 5 64
7 6 71
8 0 76
8 1 85
8 2 70
8 3 38
8 4 14
8 5 90
8 6 27
8 7 63
9 0 78
9 1 49
9 2 96
9 3 52
9 4 81
9 5 21
9 6 26
9 7 58
9 8 38
10 0 95
10 1 20
10 2 86
10 3 76
10 4 9
10 5 18
10 6 16
10 7 50
10 8 19
10 9 14
11 0 13
11 1 36
11 2 45
11 3 28
11 4 67
11 5 5
11 6 93
11 7 5
11 8 66
11 9 77
11 10 36
12 0 91
12 1 91
12 2 12
12 3 83
12 4 27
12 5 95
12 6 1
12 7 81
12 8 60
12 9 1
12 10 47
12 11 33
13 0 48
13 1 33
13 2 57
13 3 19
13 4 26
13 5 63
13 6 84
13 7 52
13 8 45
13 9 40
13 10 94
13 11 17
13 12 9
14 0 26
14 1 43
14 2 61
14 3 68
14 4 69
14 5 80
14 6 41
14 7 53
14 8 81
14 9 28
14 10 49
14 11 41
14 12 95
14 13 7
15 0 59
15 1 97
15 2 28
15 3 81
15 4 85
15 5 49
15 6 72
15 7 63
15 8 25
15 9 51
15 10 85
15 11 15
15 12 40
15 13 76
15 14 59
16 0 96
16 1 99
16 2 40
16 3 90
16 4 81
16 5 69
16 6 22
16 7 64
16 8 33
16 9 53
16 10 66
16 11 52
16 12 4
16 13 95
16 14 60
16 15 61
17 0 3
17 1 2
17 2 28
17 3 97
17 4 48
17 5 57
17 6 89
17 7 28
17 8 6
17 9 25
17 10 61
17 11 58
17 12 62
17 13 66
17 14 20
17 15 54
17 16 95
18 0 18
18 1 38
18 2 66
18 3 46
18 4 14
18 5 57
18 6 68
18 7 96
18 8 29
18 9 85
18 10 76
18 11 99
18 12 97
18 13 10
18 14 38
18 15 39
18 16 25
18 17 66
19 0 1
19 1 95
19 2 96
19 3 7
19 4 94
19 5 42
19 6 46
19 7 72
19 8 85
19 9 28
19 10 58
19 11 35
19 12 12
19 13 89
19 14 89
19 15 87
19 16 72
19 17 97
19 18 47
20 0 82
20 1 34
20 2 68
20 3 76
20 4 58
20 5 19
20 6 54
20 7 98
20 8 6
20 9 42
20 10 6
20 11 55
20 12 39
20 13 15
20 14 88
20 15 21
20 16 5
20 17 69
20 18 61
20 19 86
21 0 36
21 1 30
21 2 85
21 3 32
21 4 17
21 5 64
21 6 6
21 7 59
21 8 32
21 9 71
21 10 10
21 11 22
21 12 17
21 13 94
21 14 78
21 15 91
21 16 17
21 17 81
21 18 72
21 19 47
21 20 47
22 0 3
22 1 21
22 2 68
22 3 83
22 4 31
22 5 11
22 6 76
22 7 42
22 8 3
22 9 80
22 10 53
22 11 35
22 12 62
22 13 68
22 14 35
22 15 89
22 16 25
22 17 100
22 18 44
22 19 71
22 20 19
22 21 72
23 0 27
23 1 80
23 2 100
23 3 80
23 4 4
23 5 66
23 6 34
23 7 17
23 8 47
23 9 3
23 10 7
23 11 21
23 12 32
23 13 29
23 14 99
23 15 53
23 16 58
23 17 20
23 18 36
23 19 33
23 20 6
23 21 72
23 22 93
24 0 65
24 1 80
24 2 92
24 3 35
24 4 39
24 5 74
24 6 43
24 7 99
24 8 71
24 9 32
24 10 82
24 11 65
24 12 35
24 13 16
24 14 75
24 15 67
24 16 100
24 17 84
24 18 7
24 19 32
24 20 52
24 21 48
24 22 96
24 23 72
25 0 98
25 1 68
25 2 79
25 3 37
25 4 61
25 5 98
25 6 56
25 7 24
25 8 9
25 9 93
25 10 76
25 11 100
25 12 95
25 13 30
25 14 19
25 15 67
25 16 86
25 17 28
25 18 13
25 19 1
25 20 12
25 21 41
25 22 70
25 23 24
25 24 72
26 0 80
26 1 50
26 2 96
26 3 61
26 4 88
26 5 81
26 6 42
26 7 17
26 8 44
26 9 85
26 10 47
26 11 4
26 12 14
26 13 99
26 14 79
26 15 66
26 16 47
26 17 90
26 18 31
26 19 38
26 20 88
26 21 93
26 22 88
26 23 77
26 24 62
26 25 37
27 0 62
27 1 69
27 2 44
27 3 20
27 4 47
27 5 12
27 6 25
27 7 63
27 8 90
27 9 85
27 10 40
27 11 48
27 12 84
27 13 58
27 14 9
27 15 20
27 16 18
27 17 88
27 18 12
27 19 4
27 20 50
27 21 28
27 22 10
27 23 73
27 24 86
27 25 21
27 26 55
28 0 75
28 1 80
28 2 79
28 3 88
28 4 80
28 5 83
28 6 49
28 7 86
28 8 34
28 9 13
28 10 21
28 11 19
28 12 14
28 13 25
28 14 45
28 15 42
28 16 23
28 17 95
28 18 39
28 19 3
28 20 76
28 21 54
28 22 22
28 23 66
28 24 55
28 25 35
28 26 100
28 27 77
29 0 46
29 1 11
29 2 77
29 3 14
29 4 76
29 5 52
29 6 88
29 7 98
29 8 21
29 9 22
29 10 72
29 11 63
29 12 45
29 13 76
29 14 10
29 15 17
29 16 98
29 17 66
29 18 31
29 19 31
29 20 80
29 21 32
29 22 33
29 23 30
29 24 43
29 25 53
29 26 82
29 27 1
29 28 10
30 0 81
30 1 97
30 2 20
30 3 99
30 4 79
30 5 4
30 6 62
30 7 5
30 8 49
30 9 55
30 10 66
30 11 83
30 12 1
30 13 19
30 14 43
30 15 7
30 16 12
30 17 92
30 18 65
30 19 26
30 20 79
30 21 98
30 22 76
30 23 32
30 24 59
30 25 65
30 26 99
30 27 100
30 28 44
30 29 6
31 0 41
31 1 88
31 2 23
31 3 28
31 4 20
31 5 85
31 6 32
31 7 60
31 8 52
31 9 55
31 10 87
31 11 75
31 12 93
31 13 23
31 14 44
31 15 31
31 16 13
31 17 78
31 18 50
31 19 71
31 20 42
31 21 14
31 22 68
31 23 53
31 24 22
31 25 24
31 26 82
31 27 99
31 28 58
31 29 6
31 30 32
32 0 81
32 1 45
32 2 63
32 3 26
32 4 89
32 5 14
32 6 10
32 7 23
32 8 50
32 9 33
32 10 97
32 11 97
32 12 78
32 13 40
32 14 24
32 15 21
32 16 92
32 17 15
32 18 18
32 19 24
32 20 35
32 21 1
32 22 80
32 23 17
32 24 49
32 25 33
32 26 25
32 27 92
32 28 28
32 29 43
32 30 88
32 31 38
33 0 38
33 1 47
33 2 52
33 3 24
33 4 58
33 5 33
33 6 22
33 7 51
33 8 20
33 9 90
33 10 66
33 11 65
33 12 19
33 13 73
33 14 85
33 15 86
33 16 26
33 17 87
33 18 77
33 19 5
33 20 44
33 21 11
33 22 26
33 23 29
33 24 72
33 25 26
33 26 13
33 27 5
33 28 69
33 29 11
33 30 39
33 31 34
33 32 39
34 0 1
34 1 9
34 2 61
34 3 77
34 4 41
34 5 3
34 6 8
34 7 46
34 8 86
34 9 58
34 10 72
34 11 72
34 12 5
34 13 10
34 14 20
34 15 82
34 16 5
34 17 84
34 18 45
34 19 24
34 20 93
34 21 36
34 22 70
34 23 34
34 24 21
34 25 71
34 26 3
34 27 47
34 28 89
34 29 100
34 30 92
34 31 70
34 32 15
34 33 11
35 0 33
35 1 50
35 2 80
35 3 60
35 4 18
35 5 23
35 6 3
35 7 14
35 8 37
35 9 15
35 10 32
35 11 1
35 12 67
35 13 29
35 14 24
35 15 38
35 16 18
35 17 54
35 18 67
35 19 62
35 20 4
35 21 63
35 22 70
35 23 73
35 24 74
35 25 93
35 26 5
35 27 54
35 28 19
35 29 30
35 30 100
35 31 52
35 32 27
35 33 30
35 34 6
36 0 13
36 1 74
36 2 59
36 3 81
36 4 16
36 5 53
36 6 25
36 7 77
36 8 47
36 9 83
36 10 44
36 11 17
36 12 100
36 13 60
36 14 58
36 15 88
36 16 18
36 17 41
36 18 92
36 19 9
36 20 80
36 21 55
36 22 28
36 23 36
36 24 20
36 25 98
36 26 22
36 27 2
36 28 35
36 29 62
36 30 12
36 31 32
36 32 92
36 33 84
36 34 62
36 35 57
37 0 76
37 1 33
37 2 67
37 3 32
37 4 16
37 5 65
37 6 4
37 7 16
37 8 85
37 9 9
37 10 98
37 11 87
37 12 67
37 13 71
37 14 55
37 15 92
37 16 26
37 17 68
37 18 57
37 19 46
37 20 38
37 21 33
37 22 45
37 23 50
37 24 57
37 25 30
37 26 19
37 27 69
37 28 18
37 29 6
37 30 35
37 31 12
37 32 22
37 33 47
37 34 85
37 35 92
37 36 45
38 0 5
38 1 76
38 2 55
38 3 49
38 4 46
38 5 60
38 6 14
38 7 14
38 8 7
38 9 69
38 10 33
38 11 10
38 12 66
38 13 61
38 14 27
38 15 63
38 16 82
38 17 82
38 18 91
38 19 5
38 20 38
38 21 99
38 22 65
38 23 1
38 24 95
38 25 63
38 26 4
38 27 98
38 28 63
38 29 92
38 30 5
38 31 29
38 32 18
38 33 8
38 34 6
38 35 81
38 36 37
38 37 48
39 0 77
39 1 98
39 2 27
39 3 34
39 4 46
39 5 89
39 6 69
39 7 84
39 8 39
39 9 55
39 10 7
39 11 93
39 12 34
39 13 44
39 14 45
39 15 12
39 16 49
39 17 30
39 18 37
39 19 3
39 20 14
39 21 45
39 22 89
39 23 62
39 24 3
39 25 16
39 26 93
39 27 20
39 28 24
39 29 94
39 30 71
39 31 75
39 32 82
39 33 79
39 34 14
39 35 15
39 36 87
39 37 65
39 38 7
40 0 25
40 1 50
40 2 69
40 3 6
40 4 4
40 5 89
40 6 8
40 7 5
40 8 18
40 9 65
40 10 60
40 11 96
40 12 79
40 13 83
40 14 99
40 15 13
40 16 18
40 17 52
40 18 91
40 19 24
40 20 92
40 21 85
40 22 16
40 23 4
40 24 51
40 25 76
40 26 30
40 27 96
40 28 40
40 29 95
40 30 78
40 31 61
40 32 32
40 33 79
40 34 45
40 35 58
40 36 99
40 37 9
40 38 93
40 39 10
41 0 75
41 1 20
41 2 6
41 3 48
41 4 69
41 5 57
41 6 77
41 7 44
41 8 27
41 9 85
41 10 73
41 11 61
41 12 59
41 13 29
41 14 82
41 15 95
41 16 74
41 17 85
41 18 29
41 19 84
41 20 85
41 21 32
41 22 95
41 23 2
41 24 85
41 25 34
41 26 3
41 27 64
41 28 10
41 29 30
41 30 42
41 31 24
41 32 23
41 33 22
41 34 31
41 35 28
41 36 96
41 37 23
41 38 68
41 39 50
41 40 85
42 0 45
42 1 2
42 2 40
42 3 98
42 4 97
42 5 20
42 6 51
42 7 25
42 8 55
42 9 48
42 10 20
42 11 69
42 12 20
42 13 1
42 14 33
42 15 96
42 16 57
42 17 28
42 18 86
42 19 8
42 20 11
42 21 42
42 22 31
42 23 76
42 24 16
42 25 40
42 26 67
42 27 21
42 28 53
42 29 28
42 30 3
42 31 12
42 32 29
42 33 31
42 34 34
42 35 20
42 36 76
42 37 45
42 38 66
42 39 51
42 40 96
42 41 46
43 0 10
43 1 40
43 2 88
43 3 93
43 4 29
43 5 92
43 6 57
43 7 62
43 8 88
43 9 92
43 10 74
43 11 11
43 12 71
43 13 16
43 14 33
43 15 66
43 16 31
43 17 29
43 18 40
43 19 64
43 20 18
43 21 42
43 22 23
43 23 17
43 24 85
43 25 62
43 26 36
43 27 50
43 28 62
43 29 64
43 30 17
43 31 56
43 32 68
43 33 71
43 34 10
43 35 65
43 36 77
43 37 10
43 38 59
43 39 98
43 40 77
43 41 81
43 42 48
44 0 89
44 1 80
44 2 80
44 3 23
44 4 65
44 5 67
44 6 26
44 7 47
44 8 32
44 9 90
44 10 12
44 11 47
44 12 9
44 13 48
44 14 73
44 15 72
44 16 96
44 17 27
44 18 25
44 19 71
44 20 78
44 21 56
44 22 46
44 23 42
44 24 2
44 25 19
44 26 84
44 27 38
44 28 66
44 29 44
44 30 6
44 31 5
44 32 28
44 33 36
44 34 51
44 35 2
44 36 4
44 37 40
44 38 23
44 39 39
44 40 19
44 41 39
44 42 53
44 43 95
45 0 42
45 1 35
45 2 10
45 3 46
45 4 1
45 5 61
45 6 37
45 7 94
45 8 70
45 9 27
45 10 54
45 11 70
45 12 70
45 13 90
45 14 40
45 15 64
45 16 28
45 17 2
45 18 98
45 19 4
45 20 86
45 21 95
45 22 50
45 23 88
45 24 54
45 25 74
45 26 33
45 27 27
45 28 41
45 29 52
45 30 82
45 31 72
45 32 26
45 33 48
45 34 28
45 35 23
45 36 33
45 37 11
45 38 36
45 39 47
45 40 36
45 41 61
45 42 75
45 43 43
45 44 7
46 0 58
46 1 84
46 2 41
46 3 64
46 4 31
46 5 79
46 6 32
46 7 14
46 8 30
46 9 28
46 10 42
46 11 78
46 12 90
46 13 54
46 14 10
46 15 32
46 16 17
46 17 91
46 18 39
46 19 36
46 20 28
46 21 65
46 22 20
46 23 99
46 24 14
46 25 83
46 26 54
46 27 21
46 28 9
46 29 77
46 30 18
46 31 13
46 32 70
46 33 92
46 34 46
46 35 67
46 36 16
46 37 56
46 38 41
46 39 48
46 40 79
46 41 51
46 42 12
46 43 21
46 44 55
46 45 69
47 0 15
47 1 31
47 2 70
47 3 39
47 4 52
47 5 4
47 6 88
47 7 40
47 8 37
47 9 37
47 10 40
47 11 52
47 12 45
47 13 96
47 14 33
47 15 1
47 16 100
47 17 41
47 18 85
47 19 2
47 20 74
47 21 30
47 22 86
47 23 4
47 24 92
47 25 99
47 26 77
47 27 97
47 28 69
47 29 6
47 30 12
47 31 28
47 32 35
47 33 77
47 34 31
47 35 41
47 36 3
47 37 8
47 38 61
47 39 39
47 40 4
47 41 4
47 42 27
47 43 20
47 44 94
47 45 55
47 46 47
48 0 57
48 1 83
48 2 88
48 3 21
48 4 6
48 5 73
48 6 41
48 7 59
48 8 68
48 9 93
48 10 46
48 11 2
48 12 43
48 13 53
48 14 19
48 15 29
48 16 43
48 17 73
48 18 96
48 19 49
48 20 61
48 21 58
48 22 66
48 23 33
48 24 7
48 25 21
48 26 71
48 27 29
48 28 61
48 29 64
48 30 99
48 31 56
48 32 8
48 33 88
48 34 83
48 35 92
48 36 36
48 37 90
48 38 68
48 39 78
48 40 42
48 41 45
48 42 21
48 43 16
48 44 57
48 45 8
48 46 100
48 47 34
49 0 79
49 1 81
49 2 96
49 3 40
49 4 100
49 5 3
49 6 22
49 7 91
49 8 38
49 9 94
49 10 9
49 11 48
49 12 36
49 13 43
49 14 32
49 15 98
49 16 66
49 17 9
49 18 83
49 19 50
49 20 60
49 21 7
49 22 54
49 23 56
49 24 68
49 25 73
49 26 8
49 27 1
49 28 88
49 29 28
49 30 38
49 31 60
49 32 43
49 33 1
49 34 52
49 35 27
49 36 88
49 37 79
49 38 39
49 39 57
49 40 68
49 41 83
49 42 83
49 43 84
49 44 79
49 45 87
49 46 48
49 47 84
49 48 80
